%%% static parameters %%%
timespan = 1;
Clients_N = [4000];
Demand_W = [15];
Lt0 = [4];
Lt1 = [4];
SS_ = [0.85];
DS_D = [20];
K = [200];
MA = [500];
HC = [0.05];
%%% dynamic parameters %%%
lost_ratio_sales_ret_th = 0.00021167246573023936;
lost_ratio_sales_ret_w = 80;
lost_ratio_sales_dis_th = 0.000657920965345722;
lost_ratio_sales_dis_w = 23;
lost_ratio_sales_fac_th = 0.00011449061068828237;
lost_ratio_sales_fac_w = 86;
stock_customer_MA_mean_relative_th = 0.9560884353135618;
stock_customer_MA_mean_relative_w = 47;
stock_distributor_MA_mean_relative_th = 0.6346047616358943;
stock_distributor_MA_mean_relative_w = 79;
stock_retailer_MA_mean_relative_th = 0.09706218731389016;
stock_retailer_MA_mean_relative_w = 74;
stock_factory_MA_mean_relative_th = 0.9266477513439123;
stock_factory_MA_mean_relative_w = 18;
